Comment...
0
Gamma
{{ kpts|join(' ') }}
0 0 0
